c FILE /home/rafael/Documents/HappySet/MIHS/inputs/happygen/output/graph_random_k2_p0.3_v100_20241127_083553.txt
c SOURCE This is a random graph formed for the happy graph colouring problem.
c DESCRIPTION It was generated using the problem generator of Rhyd Lewis
c
c GRAPH STATS
c Seed                             = 1225548165
c Number of Nodes                  = 100
c Edge probability defined by user = 0.5
c Number of colours k              = 2
c Number of pre-assignments        = 30
c Actual density                   = 0.492727
c 
c The degrees of nodes 1 to 100, respectively, are as follows 
c [58, 57, 56, 56, 56, 56, 56, 56, 56, 55, 55, 55, 55, 55, 55, 54, 54, 53, 53, 53, 53, 53, 53, 52, 52, 52, 
c  52, 52, 52, 52, 51, 51, 51, 51, 51, 51, 50, 50, 50, 49, 49, 49, 49, 49, 49, 49, 49, 49, 49, 49, 49, 
c  49, 49, 48, 48, 48, 48, 48, 48, 48, 47, 47, 47, 47, 47, 47, 47, 47, 47, 47, 46, 46, 46, 46, 46, 45, 
c  45, 45, 45, 45, 45, 45, 45, 45, 45, 45, 44, 44, 43, 43, 43, 42, 42, 42, 42, 41, 40, 39, 37, 36] 
c  
p edge 100 2439 2
e 1 3
e 1 5
e 1 6
e 1 8
e 1 9
e 1 12
e 1 13
e 1 16
e 1 18
e 1 19
e 1 20
e 1 21
e 1 27
e 1 28
e 1 29
e 1 30
e 1 31
e 1 32
e 1 33
e 1 34
e 1 35
e 1 37
e 1 38
e 1 40
e 1 44
e 1 47
e 1 48
e 1 49
e 1 50
e 1 51
e 1 54
e 1 56
e 1 57
e 1 58
e 1 60
e 1 61
e 1 62
e 1 63
e 1 65
e 1 66
e 1 67
e 1 68
e 1 69
e 1 72
e 1 75
e 1 76
e 1 77
e 1 79
e 1 82
e 1 83
e 1 84
e 1 88
e 1 92
e 1 93
e 1 95
e 1 96
e 1 98
e 1 100
e 2 3
e 2 4
e 2 7
e 2 9
e 2 10
e 2 11
e 2 14
e 2 15
e 2 16
e 2 19
e 2 22
e 2 23
e 2 24
e 2 25
e 2 26
e 2 27
e 2 28
e 2 31
e 2 34
e 2 36
e 2 38
e 2 39
e 2 42
e 2 43
e 2 44
e 2 46
e 2 47
e 2 48
e 2 49
e 2 50
e 2 51
e 2 53
e 2 54
e 2 55
e 2 56
e 2 58
e 2 59
e 2 62
e 2 63
e 2 64
e 2 66
e 2 68
e 2 71
e 2 73
e 2 75
e 2 79
e 2 81
e 2 82
e 2 84
e 2 86
e 2 87
e 2 88
e 2 89
e 2 90
e 2 92
e 2 94
e 2 99
e 3 7
e 3 8
e 3 9
e 3 11
e 3 12
e 3 13
e 3 16
e 3 17
e 3 18
e 3 19
e 3 20
e 3 21
e 3 23
e 3 24
e 3 25
e 3 26
e 3 27
e 3 28
e 3 32
e 3 33
e 3 34
e 3 35
e 3 38
e 3 41
e 3 43
e 3 44
e 3 48
e 3 49
e 3 53
e 3 54
e 3 55
e 3 56
e 3 57
e 3 58
e 3 60
e 3 66
e 3 71
e 3 72
e 3 74
e 3 75
e 3 77
e 3 79
e 3 84
e 3 85
e 3 86
e 3 88
e 3 89
e 3 91
e 3 93
e 3 94
e 3 95
e 3 98
e 3 99
e 3 100
e 4 5
e 4 7
e 4 9
e 4 10
e 4 12
e 4 13
e 4 15
e 4 16
e 4 17
e 4 18
e 4 19
e 4 20
e 4 26
e 4 31
e 4 32
e 4 35
e 4 37
e 4 40
e 4 41
e 4 42
e 4 44
e 4 45
e 4 46
e 4 47
e 4 48
e 4 49
e 4 50
e 4 53
e 4 54
e 4 55
e 4 57
e 4 58
e 4 61
e 4 63
e 4 64
e 4 66
e 4 67
e 4 68
e 4 74
e 4 75
e 4 77
e 4 78
e 4 80
e 4 81
e 4 83
e 4 85
e 4 86
e 4 89
e 4 93
e 4 95
e 4 96
e 4 97
e 4 98
e 4 99
e 4 100
e 5 6
e 5 8
e 5 12
e 5 15
e 5 16
e 5 17
e 5 18
e 5 20
e 5 21
e 5 22
e 5 23
e 5 24
e 5 26
e 5 27
e 5 28
e 5 30
e 5 31
e 5 32
e 5 33
e 5 34
e 5 36
e 5 38
e 5 39
e 5 43
e 5 44
e 5 45
e 5 46
e 5 49
e 5 51
e 5 52
e 5 54
e 5 55
e 5 56
e 5 58
e 5 60
e 5 62
e 5 65
e 5 66
e 5 67
e 5 70
e 5 72
e 5 74
e 5 75
e 5 79
e 5 80
e 5 85
e 5 86
e 5 87
e 5 90
e 5 91
e 5 93
e 5 95
e 5 97
e 5 99
e 6 7
e 6 8
e 6 10
e 6 11
e 6 12
e 6 15
e 6 16
e 6 17
e 6 18
e 6 20
e 6 21
e 6 22
e 6 24
e 6 25
e 6 28
e 6 29
e 6 30
e 6 31
e 6 35
e 6 36
e 6 38
e 6 41
e 6 46
e 6 47
e 6 48
e 6 49
e 6 50
e 6 53
e 6 54
e 6 58
e 6 59
e 6 60
e 6 64
e 6 65
e 6 67
e 6 68
e 6 71
e 6 72
e 6 73
e 6 74
e 6 75
e 6 76
e 6 77
e 6 78
e 6 82
e 6 83
e 6 84
e 6 86
e 6 92
e 6 93
e 6 95
e 6 96
e 6 97
e 6 98
e 7 8
e 7 9
e 7 10
e 7 11
e 7 13
e 7 14
e 7 15
e 7 16
e 7 19
e 7 23
e 7 26
e 7 27
e 7 28
e 7 29
e 7 32
e 7 34
e 7 35
e 7 36
e 7 37
e 7 38
e 7 42
e 7 45
e 7 47
e 7 49
e 7 51
e 7 52
e 7 53
e 7 54
e 7 55
e 7 56
e 7 57
e 7 59
e 7 60
e 7 61
e 7 62
e 7 63
e 7 64
e 7 67
e 7 69
e 7 71
e 7 72
e 7 74
e 7 75
e 7 80
e 7 82
e 7 86
e 7 90
e 7 92
e 7 93
e 7 94
e 7 95
e 7 100
e 8 13
e 8 14
e 8 16
e 8 17
e 8 19
e 8 20
e 8 22
e 8 24
e 8 27
e 8 28
e 8 29
e 8 30
e 8 32
e 8 33
e 8 34
e 8 36
e 8 38
e 8 43
e 8 49
e 8 50
e 8 51
e 8 52
e 8 54
e 8 55
e 8 56
e 8 57
e 8 58
e 8 59
e 8 61
e 8 62
e 8 65
e 8 66
e 8 68
e 8 69
e 8 70
e 8 71
e 8 73
e 8 74
e 8 78
e 8 81
e 8 82
e 8 84
e 8 85
e 8 87
e 8 89
e 8 91
e 8 92
e 8 95
e 8 97
e 8 99
e 8 100
e 9 10
e 9 13
e 9 15
e 9 16
e 9 17
e 9 18
e 9 19
e 9 22
e 9 26
e 9 28
e 9 29
e 9 30
e 9 31
e 9 32
e 9 33
e 9 34
e 9 35
e 9 38
e 9 39
e 9 40
e 9 44
e 9 45
e 9 49
e 9 50
e 9 52
e 9 54
e 9 56
e 9 57
e 9 59
e 9 60
e 9 62
e 9 63
e 9 64
e 9 66
e 9 68
e 9 69
e 9 70
e 9 72
e 9 74
e 9 80
e 9 81
e 9 85
e 9 87
e 9 88
e 9 89
e 9 90
e 9 91
e 9 94
e 9 95
e 9 96
e 9 97
e 10 11
e 10 12
e 10 13
e 10 14
e 10 15
e 10 16
e 10 17
e 10 19
e 10 20
e 10 21
e 10 22
e 10 23
e 10 25
e 10 26
e 10 27
e 10 36
e 10 37
e 10 39
e 10 40
e 10 41
e 10 43
e 10 44
e 10 45
e 10 48
e 10 50
e 10 51
e 10 52
e 10 53
e 10 54
e 10 55
e 10 61
e 10 62
e 10 64
e 10 65
e 10 69
e 10 71
e 10 72
e 10 73
e 10 76
e 10 78
e 10 80
e 10 83
e 10 84
e 10 87
e 10 89
e 10 91
e 10 92
e 10 95
e 10 96
e 10 98
e 11 12
e 11 13
e 11 14
e 11 15
e 11 16
e 11 19
e 11 21
e 11 22
e 11 23
e 11 24
e 11 27
e 11 29
e 11 32
e 11 34
e 11 36
e 11 37
e 11 38
e 11 39
e 11 40
e 11 41
e 11 42
e 11 48
e 11 49
e 11 51
e 11 53
e 11 55
e 11 56
e 11 57
e 11 59
e 11 61
e 11 64
e 11 65
e 11 66
e 11 67
e 11 68
e 11 73
e 11 75
e 11 76
e 11 80
e 11 85
e 11 87
e 11 88
e 11 89
e 11 91
e 11 94
e 11 95
e 11 96
e 11 97
e 11 99
e 11 100
e 12 15
e 12 16
e 12 21
e 12 22
e 12 25
e 12 27
e 12 29
e 12 30
e 12 31
e 12 32
e 12 33
e 12 34
e 12 36
e 12 37
e 12 38
e 12 42
e 12 43
e 12 44
e 12 47
e 12 48
e 12 50
e 12 51
e 12 54
e 12 57
e 12 58
e 12 61
e 12 62
e 12 63
e 12 66
e 12 67
e 12 68
e 12 69
e 12 70
e 12 71
e 12 73
e 12 74
e 12 75
e 12 76
e 12 78
e 12 80
e 12 81
e 12 82
e 12 85
e 12 86
e 12 87
e 12 91
e 12 95
e 12 96
e 13 14
e 13 15
e 13 16
e 13 17
e 13 19
e 13 20
e 13 21
e 13 25
e 13 26
e 13 32
e 13 33
e 13 35
e 13 39
e 13 42
e 13 43
e 13 44
e 13 45
e 13 47
e 13 52
e 13 53
e 13 54
e 13 55
e 13 56
e 13 57
e 13 58
e 13 59
e 13 62
e 13 63
e 13 64
e 13 66
e 13 67
e 13 68
e 13 70
e 13 72
e 13 74
e 13 75
e 13 76
e 13 77
e 13 78
e 13 79
e 13 83
e 13 85
e 13 86
e 13 94
e 13 95
e 13 97
e 13 99
e 14 15
e 14 17
e 14 19
e 14 20
e 14 21
e 14 23
e 14 25
e 14 26
e 14 28
e 14 29
e 14 32
e 14 33
e 14 37
e 14 41
e 14 44
e 14 45
e 14 46
e 14 47
e 14 48
e 14 49
e 14 52
e 14 55
e 14 56
e 14 59
e 14 60
e 14 61
e 14 64
e 14 65
e 14 66
e 14 70
e 14 71
e 14 73
e 14 75
e 14 76
e 14 77
e 14 78
e 14 79
e 14 81
e 14 85
e 14 86
e 14 87
e 14 88
e 14 89
e 14 90
e 14 93
e 14 94
e 14 96
e 14 97
e 14 99
e 15 18
e 15 19
e 15 20
e 15 24
e 15 25
e 15 26
e 15 27
e 15 32
e 15 33
e 15 36
e 15 37
e 15 38
e 15 39
e 15 43
e 15 44
e 15 45
e 15 46
e 15 47
e 15 52
e 15 53
e 15 56
e 15 58
e 15 60
e 15 61
e 15 62
e 15 63
e 15 66
e 15 67
e 15 68
e 15 69
e 15 70
e 15 71
e 15 73
e 15 79
e 15 80
e 15 81
e 15 82
e 15 85
e 15 86
e 15 89
e 15 92
e 15 93
e 15 98
e 15 100
e 16 17
e 16 18
e 16 19
e 16 22
e 16 23
e 16 26
e 16 28
e 16 32
e 16 33
e 16 34
e 16 36
e 16 40
e 16 41
e 16 45
e 16 46
e 16 47
e 16 48
e 16 49
e 16 51
e 16 53
e 16 54
e 16 56
e 16 57
e 16 58
e 16 62
e 16 63
e 16 64
e 16 65
e 16 66
e 16 74
e 16 76
e 16 78
e 16 79
e 16 82
e 16 85
e 16 88
e 16 91
e 16 92
e 16 93
e 16 95
e 16 98
e 17 19
e 17 26
e 17 27
e 17 29
e 17 30
e 17 31
e 17 32
e 17 34
e 17 36
e 17 37
e 17 38
e 17 42
e 17 43
e 17 44
e 17 45
e 17 46
e 17 48
e 17 50
e 17 53
e 17 54
e 17 57
e 17 61
e 17 62
e 17 63
e 17 65
e 17 67
e 17 69
e 17 70
e 17 72
e 17 73
e 17 76
e 17 77
e 17 78
e 17 79
e 17 80
e 17 81
e 17 82
e 17 87
e 17 89
e 17 90
e 17 92
e 17 93
e 17 95
e 17 98
e 18 20
e 18 21
e 18 22
e 18 23
e 18 26
e 18 27
e 18 28
e 18 31
e 18 32
e 18 38
e 18 40
e 18 41
e 18 43
e 18 44
e 18 47
e 18 48
e 18 49
e 18 51
e 18 52
e 18 54
e 18 57
e 18 58
e 18 60
e 18 63
e 18 64
e 18 65
e 18 66
e 18 69
e 18 70
e 18 71
e 18 72
e 18 73
e 18 74
e 18 80
e 18 81
e 18 82
e 18 83
e 18 84
e 18 85
e 18 87
e 18 90
e 18 93
e 18 95
e 18 97
e 18 99
e 19 20
e 19 24
e 19 25
e 19 26
e 19 27
e 19 29
e 19 30
e 19 32
e 19 33
e 19 34
e 19 36
e 19 39
e 19 40
e 19 44
e 19 45
e 19 47
e 19 48
e 19 49
e 19 53
e 19 55
e 19 58
e 19 61
e 19 65
e 19 67
e 19 69
e 19 70
e 19 71
e 19 73
e 19 75
e 19 82
e 19 84
e 19 85
e 19 86
e 19 87
e 19 90
e 19 92
e 19 93
e 19 94
e 19 99
e 20 23
e 20 24
e 20 25
e 20 26
e 20 27
e 20 28
e 20 29
e 20 30
e 20 31
e 20 35
e 20 39
e 20 40
e 20 41
e 20 43
e 20 45
e 20 48
e 20 49
e 20 51
e 20 52
e 20 53
e 20 57
e 20 60
e 20 61
e 20 62
e 20 63
e 20 67
e 20 68
e 20 69
e 20 71
e 20 72
e 20 76
e 20 77
e 20 78
e 20 84
e 20 88
e 20 91
e 20 93
e 20 94
e 20 97
e 20 98
e 20 100
e 21 24
e 21 25
e 21 27
e 21 28
e 21 31
e 21 34
e 21 35
e 21 39
e 21 41
e 21 42
e 21 44
e 21 46
e 21 47
e 21 49
e 21 50
e 21 51
e 21 53
e 21 55
e 21 56
e 21 57
e 21 59
e 21 60
e 21 63
e 21 64
e 21 66
e 21 67
e 21 71
e 21 72
e 21 78
e 21 79
e 21 81
e 21 82
e 21 85
e 21 86
e 21 87
e 21 88
e 21 91
e 21 94
e 21 95
e 21 96
e 21 97
e 21 98
e 21 100
e 22 23
e 22 24
e 22 25
e 22 28
e 22 29
e 22 30
e 22 31
e 22 33
e 22 35
e 22 37
e 22 38
e 22 39
e 22 40
e 22 43
e 22 44
e 22 45
e 22 46
e 22 50
e 22 54
e 22 55
e 22 56
e 22 57
e 22 61
e 22 63
e 22 66
e 22 68
e 22 70
e 22 71
e 22 74
e 22 76
e 22 78
e 22 79
e 22 83
e 22 84
e 22 87
e 22 88
e 22 89
e 22 90
e 22 92
e 22 93
e 22 95
e 22 97
e 22 100
e 23 25
e 23 26
e 23 27
e 23 28
e 23 29
e 23 30
e 23 33
e 23 36
e 23 42
e 23 44
e 23 46
e 23 51
e 23 55
e 23 56
e 23 57
e 23 58
e 23 61
e 23 62
e 23 63
e 23 64
e 23 66
e 23 67
e 23 68
e 23 70
e 23 73
e 23 74
e 23 76
e 23 79
e 23 80
e 23 81
e 23 83
e 23 86
e 23 87
e 23 89
e 23 91
e 23 93
e 23 94
e 23 95
e 23 96
e 23 97
e 23 99
e 23 100
e 24 25
e 24 28
e 24 29
e 24 30
e 24 31
e 24 33
e 24 34
e 24 37
e 24 38
e 24 40
e 24 41
e 24 44
e 24 45
e 24 46
e 24 49
e 24 50
e 24 52
e 24 58
e 24 59
e 24 60
e 24 63
e 24 65
e 24 67
e 24 68
e 24 69
e 24 72
e 24 74
e 24 75
e 24 76
e 24 78
e 24 79
e 24 80
e 24 81
e 24 82
e 24 83
e 24 86
e 24 90
e 24 91
e 24 92
e 24 95
e 24 96
e 25 26
e 25 29
e 25 32
e 25 33
e 25 36
e 25 38
e 25 40
e 25 41
e 25 45
e 25 46
e 25 52
e 25 53
e 25 56
e 25 58
e 25 59
e 25 60
e 25 61
e 25 62
e 25 64
e 25 65
e 25 66
e 25 68
e 25 69
e 25 70
e 25 72
e 25 73
e 25 77
e 25 81
e 25 84
e 25 86
e 25 87
e 25 88
e 25 89
e 25 91
e 25 93
e 25 95
e 25 96
e 25 99
e 26 28
e 26 29
e 26 32
e 26 33
e 26 34
e 26 35
e 26 36
e 26 41
e 26 42
e 26 43
e 26 45
e 26 49
e 26 52
e 26 53
e 26 57
e 26 63
e 26 66
e 26 68
e 26 70
e 26 71
e 26 74
e 26 76
e 26 80
e 26 81
e 26 82
e 26 83
e 26 85
e 26 86
e 26 88
e 26 89
e 26 90
e 26 93
e 26 94
e 26 96
e 26 99
e 27 29
e 27 30
e 27 34
e 27 35
e 27 37
e 27 40
e 27 41
e 27 42
e 27 43
e 27 45
e 27 46
e 27 48
e 27 50
e 27 51
e 27 52
e 27 57
e 27 59
e 27 61
e 27 65
e 27 70
e 27 71
e 27 72
e 27 74
e 27 75
e 27 76
e 27 81
e 27 83
e 27 84
e 27 85
e 27 89
e 27 90
e 27 92
e 27 93
e 27 96
e 27 97
e 27 98
e 28 29
e 28 31
e 28 33
e 28 34
e 28 35
e 28 36
e 28 37
e 28 38
e 28 39
e 28 42
e 28 43
e 28 45
e 28 50
e 28 51
e 28 52
e 28 54
e 28 55
e 28 56
e 28 58
e 28 60
e 28 61
e 28 64
e 28 65
e 28 66
e 28 67
e 28 76
e 28 79
e 28 80
e 28 81
e 28 83
e 28 85
e 28 91
e 28 94
e 28 97
e 28 100
e 29 30
e 29 31
e 29 34
e 29 37
e 29 41
e 29 43
e 29 45
e 29 47
e 29 49
e 29 50
e 29 52
e 29 56
e 29 58
e 29 60
e 29 61
e 29 62
e 29 63
e 29 64
e 29 65
e 29 69
e 29 73
e 29 79
e 29 80
e 29 82
e 29 83
e 29 84
e 29 85
e 29 86
e 29 88
e 29 89
e 29 92
e 29 94
e 29 95
e 29 97
e 30 31
e 30 32
e 30 33
e 30 34
e 30 35
e 30 37
e 30 38
e 30 39
e 30 41
e 30 42
e 30 45
e 30 46
e 30 48
e 30 49
e 30 50
e 30 53
e 30 54
e 30 57
e 30 58
e 30 59
e 30 61
e 30 62
e 30 65
e 30 66
e 30 69
e 30 70
e 30 74
e 30 76
e 30 77
e 30 78
e 30 79
e 30 84
e 30 86
e 30 87
e 30 89
e 30 91
e 30 96
e 30 98
e 31 33
e 31 34
e 31 36
e 31 37
e 31 39
e 31 42
e 31 47
e 31 49
e 31 52
e 31 59
e 31 61
e 31 62
e 31 63
e 31 65
e 31 67
e 31 69
e 31 70
e 31 71
e 31 73
e 31 74
e 31 75
e 31 76
e 31 79
e 31 80
e 31 82
e 31 83
e 31 84
e 31 86
e 31 89
e 31 91
e 31 94
e 31 95
e 31 97
e 31 98
e 31 99
e 32 33
e 32 35
e 32 36
e 32 40
e 32 41
e 32 43
e 32 44
e 32 45
e 32 47
e 32 48
e 32 49
e 32 50
e 32 56
e 32 57
e 32 59
e 32 61
e 32 63
e 32 65
e 32 67
e 32 69
e 32 71
e 32 72
e 32 77
e 32 78
e 32 81
e 32 82
e 32 84
e 32 87
e 32 88
e 32 93
e 32 95
e 32 96
e 33 35
e 33 36
e 33 37
e 33 38
e 33 39
e 33 43
e 33 45
e 33 50
e 33 51
e 33 52
e 33 53
e 33 54
e 33 55
e 33 58
e 33 60
e 33 61
e 33 64
e 33 65
e 33 69
e 33 70
e 33 74
e 33 76
e 33 78
e 33 79
e 33 83
e 33 84
e 33 86
e 33 89
e 33 94
e 33 96
e 33 97
e 34 38
e 34 39
e 34 41
e 34 44
e 34 45
e 34 46
e 34 48
e 34 50
e 34 52
e 34 55
e 34 57
e 34 59
e 34 60
e 34 64
e 34 66
e 34 70
e 34 71
e 34 73
e 34 75
e 34 78
e 34 79
e 34 81
e 34 82
e 34 84
e 34 85
e 34 87
e 34 90
e 34 91
e 34 92
e 34 95
e 34 98
e 35 36
e 35 37
e 35 38
e 35 39
e 35 40
e 35 42
e 35 44
e 35 45
e 35 46
e 35 47
e 35 49
e 35 50
e 35 52
e 35 53
e 35 54
e 35 55
e 35 59
e 35 61
e 35 64
e 35 65
e 35 66
e 35 67
e 35 68
e 35 70
e 35 76
e 35 79
e 35 80
e 35 81
e 35 83
e 35 84
e 35 90
e 35 91
e 35 93
e 35 94
e 35 98
e 36 39
e 36 41
e 36 42
e 36 43
e 36 46
e 36 48
e 36 51
e 36 54
e 36 56
e 36 57
e 36 58
e 36 62
e 36 63
e 36 65
e 36 67
e 36 69
e 36 70
e 36 72
e 36 73
e 36 75
e 36 76
e 36 77
e 36 79
e 36 81
e 36 83
e 36 84
e 36 85
e 36 89
e 36 90
e 36 95
e 36 98
e 37 38
e 37 39
e 37 40
e 37 42
e 37 45
e 37 47
e 37 51
e 37 53
e 37 55
e 37 56
e 37 58
e 37 60
e 37 62
e 37 63
e 37 65
e 37 67
e 37 68
e 37 70
e 37 71
e 37 72
e 37 74
e 37 76
e 37 81
e 37 82
e 37 83
e 37 85
e 37 87
e 37 88
e 37 89
e 37 90
e 37 91
e 37 96
e 38 40
e 38 41
e 38 43
e 38 46
e 38 47
e 38 51
e 38 55
e 38 56
e 38 57
e 38 59
e 38 60
e 38 62
e 38 63
e 38 65
e 38 70
e 38 71
e 38 73
e 38 74
e 38 75
e 38 76
e 38 77
e 38 84
e 38 88
e 38 90
e 38 92
e 38 94
e 38 97
e 38 100
e 39 40
e 39 41
e 39 42
e 39 43
e 39 44
e 39 46
e 39 49
e 39 50
e 39 52
e 39 53
e 39 55
e 39 56
e 39 59
e 39 62
e 39 65
e 39 67
e 39 68
e 39 69
e 39 73
e 39 74
e 39 75
e 39 78
e 39 79
e 39 82
e 39 84
e 39 85
e 39 93
e 39 94
e 39 96
e 39 97
e 39 100
e 40 41
e 40 42
e 40 45
e 40 46
e 40 48
e 40 49
e 40 51
e 40 52
e 40 53
e 40 54
e 40 60
e 40 62
e 40 63
e 40 67
e 40 68
e 40 70
e 40 72
e 40 74
e 40 75
e 40 78
e 40 79
e 40 83
e 40 84
e 40 85
e 40 87
e 40 90
e 40 92
e 40 94
e 40 95
e 40 96
e 40 99
e 41 44
e 41 47
e 41 48
e 41 49
e 41 51
e 41 53
e 41 54
e 41 55
e 41 56
e 41 57
e 41 58
e 41 59
e 41 64
e 41 68
e 41 74
e 41 77
e 41 80
e 41 81
e 41 82
e 41 85
e 41 86
e 41 88
e 41 92
e 41 93
e 41 96
e 41 97
e 41 98
e 42 43
e 42 44
e 42 45
e 42 46
e 42 47
e 42 48
e 42 51
e 42 52
e 42 53
e 42 54
e 42 60
e 42 63
e 42 64
e 42 65
e 42 69
e 42 74
e 42 77
e 42 78
e 42 79
e 42 80
e 42 83
e 42 85
e 42 86
e 42 87
e 42 89
e 42 91
e 42 92
e 42 96
e 42 98
e 42 100
e 43 46
e 43 47
e 43 52
e 43 53
e 43 55
e 43 57
e 43 60
e 43 62
e 43 64
e 43 66
e 43 67
e 43 69
e 43 71
e 43 72
e 43 73
e 43 74
e 43 75
e 43 77
e 43 78
e 43 79
e 43 83
e 43 86
e 43 87
e 43 88
e 43 89
e 43 97
e 43 98
e 44 46
e 44 47
e 44 48
e 44 52
e 44 53
e 44 54
e 44 59
e 44 60
e 44 61
e 44 63
e 44 65
e 44 66
e 44 68
e 44 70
e 44 72
e 44 74
e 44 75
e 44 77
e 44 79
e 44 84
e 44 88
e 44 89
e 44 96
e 44 98
e 44 100
e 45 46
e 45 49
e 45 50
e 45 51
e 45 53
e 45 54
e 45 55
e 45 59
e 45 61
e 45 67
e 45 68
e 45 70
e 45 75
e 45 77
e 45 78
e 45 80
e 45 83
e 45 86
e 45 89
e 45 90
e 45 94
e 45 98
e 46 47
e 46 49
e 46 50
e 46 59
e 46 60
e 46 61
e 46 62
e 46 63
e 46 64
e 46 67
e 46 68
e 46 69
e 46 70
e 46 73
e 46 76
e 46 77
e 46 80
e 46 81
e 46 82
e 46 85
e 46 86
e 46 87
e 46 97
e 46 99
e 47 48
e 47 50
e 47 51
e 47 55
e 47 56
e 47 58
e 47 61
e 47 64
e 47 65
e 47 66
e 47 68
e 47 70
e 47 71
e 47 74
e 47 75
e 47 77
e 47 79
e 47 83
e 47 85
e 47 87
e 47 88
e 47 90
e 47 91
e 47 93
e 47 95
e 48 49
e 48 51
e 48 52
e 48 54
e 48 57
e 48 60
e 48 61
e 48 64
e 48 65
e 48 66
e 48 67
e 48 74
e 48 76
e 48 77
e 48 78
e 48 80
e 48 81
e 48 82
e 48 83
e 48 86
e 48 87
e 48 95
e 48 97
e 48 98
e 48 100
e 49 50
e 49 52
e 49 55
e 49 57
e 49 59
e 49 61
e 49 64
e 49 66
e 49 72
e 49 73
e 49 78
e 49 80
e 49 87
e 49 88
e 49 90
e 49 91
e 49 92
e 49 95
e 49 99
e 49 100
e 50 55
e 50 56
e 50 59
e 50 60
e 50 61
e 50 64
e 50 66
e 50 68
e 50 75
e 50 77
e 50 78
e 50 79
e 50 80
e 50 81
e 50 83
e 50 84
e 50 86
e 50 89
e 50 93
e 50 94
e 50 96
e 50 98
e 50 99
e 50 100
e 51 54
e 51 57
e 51 58
e 51 59
e 51 63
e 51 65
e 51 66
e 51 67
e 51 68
e 51 69
e 51 70
e 51 71
e 51 72
e 51 75
e 51 76
e 51 81
e 51 83
e 51 88
e 51 89
e 51 93
e 51 94
e 51 97
e 51 98
e 51 100
e 52 54
e 52 56
e 52 58
e 52 60
e 52 61
e 52 62
e 52 63
e 52 65
e 52 67
e 52 68
e 52 69
e 52 71
e 52 72
e 52 73
e 52 75
e 52 83
e 52 84
e 52 90
e 52 91
e 52 95
e 52 98
e 52 100
e 53 55
e 53 57
e 53 58
e 53 62
e 53 63
e 53 64
e 53 65
e 53 66
e 53 69
e 53 71
e 53 73
e 53 77
e 53 80
e 53 82
e 53 85
e 53 87
e 53 90
e 53 92
e 53 93
e 53 96
e 53 98
e 53 99
e 54 56
e 54 58
e 54 59
e 54 61
e 54 62
e 54 68
e 54 69
e 54 73
e 54 77
e 54 78
e 54 79
e 54 84
e 54 86
e 54 87
e 54 89
e 54 91
e 54 92
e 54 97
e 54 100
e 55 57
e 55 58
e 55 60
e 55 62
e 55 64
e 55 71
e 55 72
e 55 76
e 55 78
e 55 80
e 55 83
e 55 88
e 55 89
e 55 91
e 55 93
e 55 94
e 55 96
e 55 97
e 55 98
e 55 100
e 56 62
e 56 63
e 56 64
e 56 65
e 56 68
e 56 69
e 56 71
e 56 73
e 56 74
e 56 75
e 56 77
e 56 78
e 56 80
e 56 82
e 56 89
e 56 91
e 56 93
e 56 96
e 56 97
e 56 99
e 57 59
e 57 60
e 57 68
e 57 69
e 57 71
e 57 72
e 57 73
e 57 77
e 57 79
e 57 80
e 57 86
e 57 87
e 57 90
e 57 92
e 57 93
e 57 94
e 57 98
e 57 100
e 58 59
e 58 60
e 58 61
e 58 66
e 58 67
e 58 69
e 58 70
e 58 71
e 58 72
e 58 74
e 58 75
e 58 78
e 58 83
e 58 85
e 58 86
e 58 90
e 58 93
e 58 97
e 58 99
e 59 62
e 59 63
e 59 67
e 59 68
e 59 69
e 59 70
e 59 71
e 59 75
e 59 76
e 59 81
e 59 82
e 59 83
e 59 86
e 59 90
e 59 91
e 59 92
e 59 95
e 59 99
e 59 100
e 60 62
e 60 63
e 60 65
e 60 71
e 60 72
e 60 75
e 60 77
e 60 80
e 60 81
e 60 83
e 60 85
e 60 88
e 60 89
e 60 90
e 60 92
e 60 93
e 60 94
e 60 97
e 61 63
e 61 65
e 61 66
e 61 67
e 61 69
e 61 73
e 61 78
e 61 81
e 61 84
e 61 86
e 61 88
e 61 91
e 61 96
e 61 100
e 62 63
e 62 64
e 62 65
e 62 66
e 62 68
e 62 75
e 62 80
e 62 81
e 62 88
e 62 90
e 62 91
e 62 92
e 62 97
e 62 99
e 62 100
e 63 66
e 63 67
e 63 78
e 63 80
e 63 82
e 63 84
e 63 85
e 63 87
e 63 88
e 63 89
e 63 93
e 63 98
e 64 66
e 64 67
e 64 70
e 64 72
e 64 73
e 64 76
e 64 77
e 64 78
e 64 81
e 64 83
e 64 88
e 64 90
e 64 91
e 64 94
e 64 95
e 64 96
e 65 66
e 65 70
e 65 74
e 65 77
e 65 79
e 65 80
e 65 82
e 65 85
e 65 90
e 65 95
e 65 99
e 66 67
e 66 72
e 66 78
e 66 80
e 66 81
e 66 82
e 66 83
e 66 85
e 66 87
e 66 96
e 67 71
e 67 72
e 67 74
e 67 75
e 67 77
e 67 78
e 67 80
e 67 83
e 67 90
e 67 92
e 67 94
e 67 96
e 68 69
e 68 71
e 68 73
e 68 76
e 68 77
e 68 78
e 68 79
e 68 83
e 68 84
e 68 85
e 68 88
e 68 89
e 68 91
e 68 94
e 69 70
e 69 71
e 69 72
e 69 74
e 69 75
e 69 76
e 69 77
e 69 78
e 69 84
e 69 86
e 69 88
e 69 90
e 69 92
e 69 93
e 70 71
e 70 72
e 70 75
e 70 77
e 70 78
e 70 84
e 70 85
e 70 86
e 70 89
e 70 92
e 70 94
e 70 96
e 70 97
e 71 83
e 71 84
e 71 86
e 71 88
e 71 91
e 71 92
e 71 94
e 71 95
e 71 97
e 71 99
e 72 75
e 72 76
e 72 77
e 72 81
e 72 84
e 72 85
e 72 86
e 72 88
e 72 90
e 72 91
e 72 93
e 72 94
e 72 96
e 73 74
e 73 76
e 73 77
e 73 80
e 73 81
e 73 82
e 73 83
e 73 84
e 73 85
e 73 86
e 73 87
e 73 89
e 73 92
e 73 95
e 73 96
e 73 97
e 74 75
e 74 77
e 74 79
e 74 81
e 74 82
e 74 84
e 74 87
e 74 89
e 74 91
e 74 97
e 74 99
e 75 79
e 75 82
e 75 83
e 75 84
e 75 85
e 75 90
e 75 94
e 75 98
e 75 99
e 76 77
e 76 78
e 76 79
e 76 81
e 76 82
e 76 83
e 76 85
e 76 86
e 76 90
e 76 93
e 76 95
e 76 98
e 77 79
e 77 82
e 77 83
e 77 87
e 77 89
e 77 96
e 77 98
e 77 99
e 78 81
e 78 82
e 78 86
e 78 87
e 78 90
e 78 91
e 78 94
e 79 81
e 79 83
e 79 84
e 79 85
e 79 87
e 79 91
e 79 92
e 79 93
e 79 94
e 80 81
e 80 82
e 80 83
e 80 84
e 80 86
e 80 88
e 80 90
e 80 98
e 80 99
e 80 100
e 81 82
e 81 85
e 81 88
e 81 91
e 81 94
e 81 98
e 82 83
e 82 85
e 82 86
e 82 88
e 82 91
e 82 92
e 82 95
e 82 98
e 83 88
e 83 99
e 84 85
e 84 90
e 84 91
e 84 92
e 84 93
e 84 94
e 85 92
e 85 96
e 86 88
e 86 91
e 86 94
e 86 99
e 87 88
e 87 89
e 87 92
e 87 93
e 87 97
e 87 98
e 87 99
e 87 100
e 88 89
e 88 91
e 88 95
e 88 96
e 88 97
e 88 100
e 89 90
e 89 92
e 89 99
e 89 100
e 90 94
e 90 95
e 90 97
e 90 99
e 91 92
e 91 100
e 92 93
e 92 95
e 92 98
e 92 100
e 93 95
e 93 97
e 93 99
e 94 96
e 94 98
e 94 99
e 95 96
e 96 97
e 96 100
e 98 100
e 99 100
n 2 1
n 3 1
n 4 1
n 9 1
n 15 1
n 19 1
n 21 1
n 25 1
n 34 1
n 43 1
n 44 1
n 45 1
n 47 1
n 53 1
n 56 1
n 57 1
n 58 1
n 61 1
n 62 1
n 63 1
n 67 1
n 70 1
n 71 1
n 74 1
n 76 2
n 84 1
n 87 1
n 89 1
n 92 1
n 99 1
